50
    1   771   937
    2   876   253
    3   877   675
    4   705   772
    5   991   165
    6   782   219
    7   271   254
    8   633   957
    9   460   326
   10   832   867
   11   148   357
   12   336    68
   13   680    53
   14   559   317
   15   268    94
   16   449   214
   17   179   958
   18    47   593
   19   896   938
   20   951   815
   21   543   470
   22   532   545
   23   689   205
   24   173   232
   25   390   638
   26   180   921
   27   861    35
   28   837   665
   29   623   183
   30    62    16
   31   570   803
   32    45   829
   33   817   477
   34   300   598
   35   601   301
   36    42   210
   37   286    29
   38   348   614
   39   908   821
   40   241   856
   41    73   576
   42   115   195
   43   743   831
   44   344   543
   45   104   960
   46    48   756
   47   586   979
   48   530   155
   49   266   488
   50   367   633
16930
